number of jobs, number of machines, initial seed, upper bound and lower bound :
          20           10   1712663600           55           50
processing times :
 46  89   8  43  46  32  71  69   5  86  32  65  95  21  64  94  90  10  37  36
 47  74  22  34  25  10  41  38  79  76  15  33  11  36  44   4  53  67  52  45
 75  91  99  88  46  98  65  18  79  28  36  24  88  28  75  61  71   5  82  28
  2  57  32   5  23   2  29  10  99  45   5  19  52  56  88  17  78   6  99  68
 85  28  95  58  67  38   3  81  80  31  76  25  25   9  50  54  62  50  69  69
 99  55  24  41  25  69  14  68  91  37  11  72  73  41  51  95  60  62  18  61
 70  66  93   9  46  28  90  29  26  77  49   3  15  78  83  66   1   5  32   3
 56  96  65  79  67  71  49  51  26  37  61  37  48  14  76  53  27  34  96  95
 66  12  36  45  18  70  68  71  22  13  66   4  75  91  78  13   1  82   4  61
 56  85  11  31  51  39  98  86  37  22  49  19  14  98  45  62  57   4  63  50
